p edge 51 221
v 1 800
v 2 200
v 3 90
v 4 60
v 5 200
v 6 400
v 7 450
v 8 210
v 9 180
v 10 500
v 11 370
v 12 80
v 13 200
v 14 300
v 15 280
v 16 340
v 17 400
v 18 90
v 19 160
v 20 100
v 21 170
v 22 175
v 23 80
v 24 260
v 25 410
v 26 80
v 27 90
v 28 280
v 29 160
v 30 260
v 31 240
v 32 300
v 33 180
v 34 120
v 35 240
v 36 80
v 37 70
v 38 230
v 39 70
v 40 30
v 41 210
v 42 380
v 43 240
v 44 140
v 45 80
v 46 250
v 47 300
v 48 540
v 49 60
v 50 30
v 51 430
e 1 2
e 1 3
e 1 4
e 1 5
e 1 6
e 1 14
e 1 19
e 1 35
e 1 40
e 2 3
e 2 4
e 2 5
e 2 7
e 2 12
e 2 32
e 2 50
e 3 4
e 3 5
e 3 42
e 4 5
e 4 8
e 4 13
e 4 21
e 4 28
e 4 38
e 4 43
e 4 51
e 5 9
e 5 22
e 5 30
e 5 45
e 6 7
e 6 8
e 6 9
e 6 14
e 6 19
e 6 35
e 6 40
e 7 8
e 7 9
e 7 12
e 7 32
e 7 50
e 8 9
e 8 13
e 8 21
e 8 28
e 8 38
e 8 43
e 8 51
e 9 22
e 9 30
e 9 45
e 10 11
e 10 12
e 10 13
e 10 18
e 10 24
e 10 34
e 10 39
e 10 49
e 11 12
e 11 13
e 11 15
e 11 25
e 11 31
e 11 36
e 11 41
e 11 46
e 12 13
e 12 32
e 12 50
e 13 21
e 13 28
e 13 38
e 13 43
e 13 51
e 14 15
e 14 16
e 14 17
e 14 19
e 14 35
e 14 40
e 15 16
e 15 17
e 15 25
e 15 31
e 15 36
e 15 41
e 15 46
e 16 17
e 16 20
e 16 26
e 16 37
e 17 29
e 17 44
e 17 48
e 18 19
e 18 20
e 18 21
e 18 22
e 18 24
e 18 34
e 18 39
e 18 49
e 19 20
e 19 21
e 19 22
e 19 35
e 19 40
e 20 21
e 20 22
e 20 26
e 20 37
e 21 22
e 21 28
e 21 38
e 21 43
e 21 51
e 22 30
e 22 45
e 23 24
e 23 25
e 23 26
e 23 27
e 23 28
e 23 29
e 23 30
e 24 25
e 24 26
e 24 27
e 24 28
e 24 29
e 24 30
e 24 34
e 24 39
e 24 49
e 25 26
e 25 27
e 25 28
e 25 29
e 25 30
e 25 31
e 25 36
e 25 41
e 25 46
e 26 27
e 26 28
e 26 29
e 26 30
e 26 37
e 27 28
e 27 29
e 27 30
e 27 33
e 27 47
e 28 29
e 28 30
e 28 38
e 28 43
e 28 51
e 29 30
e 29 44
e 29 48
e 30 45
e 31 32
e 31 33
e 31 36
e 31 41
e 31 46
e 32 33
e 32 50
e 33 47
e 34 35
e 34 36
e 34 37
e 34 38
e 34 39
e 34 49
e 35 36
e 35 37
e 35 38
e 35 40
e 36 37
e 36 38
e 36 41
e 36 46
e 37 38
e 38 43
e 38 51
e 39 40
e 39 41
e 39 42
e 39 43
e 39 44
e 39 45
e 39 49
e 40 41
e 40 42
e 40 43
e 40 44
e 40 45
e 41 42
e 41 43
e 41 44
e 41 45
e 41 46
e 42 43
e 42 44
e 42 45
e 43 44
e 43 45
e 43 51
e 44 45
e 44 48
e 46 47
e 46 48
e 47 48
e 49 50
e 49 51
e 50 51
